[1] Reading Data...
[1] Solving...
Optimize a model with 17794 rows, 450 columns and 35588 nonzeros
Variable types: 0 continuous, 450 integer (450 binary)
Coefficient statistics:
  Matrix range     [1e+00, 1e+00]
  Objective range  [1e+00, 1e+00]
  Bounds range     [0e+00, 0e+00]
  RHS range        [1e+00, 1e+00]
Found heuristic solution: objective 21.0000000
Presolve removed 14386 rows and 0 columns
Presolve time: 0.46s
Presolved: 3408 rows, 450 columns, 20678 nonzeros
Variable types: 0 continuous, 450 integer (450 binary)

Root relaxation: objective 5.315458e+01, 2498 iterations, 1.39 seconds

    Nodes    |    Current Node    |     Objective Bounds      |     Work
 Expl Unexpl |  Obj  Depth IntInf | Incumbent    BestBd   Gap | It/Node Time

     0     0   53.15458    0  378   21.00000   53.15458   153%     -    2s
H    0     0                      22.0000000   53.15458   142%     -    2s
     0     0   32.11430    0  162   22.00000   32.11430  46.0%     -    4s
H    0     0                      23.0000000   32.11430  39.6%     -    4s
     0     0   30.44444    0  138   23.00000   30.44444  32.4%     -    4s
     0     0   30.00000    0  133   23.00000   30.00000  30.4%     -    4s
     0     0   30.00000    0  117   23.00000   30.00000  30.4%     -    4s
     0     0   30.00000    0  141   23.00000   30.00000  30.4%     -    4s
H    0     0                      25.0000000   30.00000  20.0%     -    4s
     0     0   30.00000    0  127   25.00000   30.00000  20.0%     -    4s
     0     0   30.00000    0  147   25.00000   30.00000  20.0%     -    4s
     0     0   30.00000    0  138   25.00000   30.00000  20.0%     -    4s
     0     0   30.00000    0  129   25.00000   30.00000  20.0%     -    5s
     0     0   30.00000    0  119   25.00000   30.00000  20.0%     -    5s
     0     0   30.00000    0  138   25.00000   30.00000  20.0%     -    5s
     0     0   30.00000    0  124   25.00000   30.00000  20.0%     -    6s
     0     0   30.00000    0  137   25.00000   30.00000  20.0%     -    6s
     0     0   30.00000    0  137   25.00000   30.00000  20.0%     -    6s
     0     2   30.00000    0  137   25.00000   30.00000  20.0%     -    8s
H   63    48                      26.0000000   30.00000  15.4%   128    9s
    70    49   29.79310   11   87   26.00000   30.00000  15.4%   127   10s
*  101    56              21      27.0000000   30.00000  11.1%   105   10s
   974   371   28.40000   15   62   27.00000   30.00000  11.1%  53.9   15s
H 1465   353                      28.0000000   30.00000  7.14%  52.9   18s
  1920   439   29.00000   22   51   28.00000   30.00000  7.14%  54.3   20s
* 2609    51              16      29.0000000   30.00000  3.45%  55.6   24s
  2643    46   30.00000    9  137   29.00000   30.00000  3.45%  55.5   27s
  2645    47   30.00000   12  352   29.00000   30.00000  3.45%  55.5   31s
  2647    49   30.00000    5  153   29.00000   30.00000  3.45%  55.4   36s
  2649    50   30.00000    4  151   29.00000   30.00000  3.45%  55.4   40s
  2654    53   30.00000   13  133   29.00000   30.00000  3.45%  55.3   45s
  2661    58   30.00000    3  124   29.00000   30.00000  3.45%  55.1   50s
  2668    63   30.00000    7  136   29.00000   30.00000  3.45%  55.0   56s
  2671    68   30.00000   11  150   29.00000   30.00000  3.45%  64.5   66s
  2681    72   30.00000   13  128   29.00000   30.00000  3.45%  64.7   70s
  2966   134   30.00000   22   71   29.00000   30.00000  3.45%  67.6   76s
  3379   236 infeasible   51        29.00000   30.00000  3.45%  68.7   81s
  3426   237   30.00000   61   79   29.00000   30.00000  3.45%  68.9   86s
  3834   355   30.00000   46   70   29.00000   30.00000  3.45%  68.3   92s
  4043   293   30.00000   61   87   29.00000   30.00000  3.45%  68.8   95s
  4943   349 infeasible   29        29.00000   30.00000  3.45%  67.8  101s
  5541   431 infeasible   22        29.00000   30.00000  3.45%  68.4  108s
  5676   471 infeasible   30        29.00000   30.00000  3.45%  68.6  110s
  6346   538 infeasible   50        29.00000   30.00000  3.45%  69.2  116s
  6818   592   30.00000   25   58   29.00000   30.00000  3.45%  70.1  122s
  7346   581 infeasible   26        29.00000   30.00000  3.45%  70.4  126s
  7822   552 infeasible   51        29.00000   30.00000  3.45%  71.5  131s
  8270   685 infeasible   23        29.00000   30.00000  3.45%  72.9  138s
  8278   608 infeasible   23        29.00000   30.00000  3.45%  72.9  141s
  8857   684 infeasible   24        29.00000   30.00000  3.45%  73.4  146s
  9509   812 infeasible   30        29.00000   30.00000  3.45%  74.5  152s
  9937   934 infeasible   55        29.00000   30.00000  3.45%  74.6  159s
 10170   880   30.00000   31   88   29.00000   30.00000  3.45%  74.7  162s
 10450   878   30.00000   55   93   29.00000   30.00000  3.45%  75.3  166s
 10786   879 infeasible   33        29.00000   30.00000  3.45%  75.3  170s
 11524   956 infeasible   29        29.00000   30.00000  3.45%  76.1  176s
 11812   936 infeasible   29        29.00000   30.00000  3.45%  76.4  183s
 12027   889 infeasible   32        29.00000   30.00000  3.45%  77.0  187s
 12400   901 infeasible   22        29.00000   30.00000  3.45%  77.5  190s
 13142   914 infeasible   24        29.00000   30.00000  3.45%  78.3  196s
 13341   913 infeasible   23        29.00000   30.00000  3.45%  78.4  202s
 13421   840   30.00000   24   81   29.00000   30.00000  3.45%  78.6  205s
 14079   836 infeasible   35        29.00000   30.00000  3.45%  78.9  211s
 14369   816   30.00000   20   79   29.00000   30.00000  3.45%  79.2  216s
 14947   867 infeasible   29        29.00000   30.00000  3.45%  79.8  225s
 15295   836 infeasible   28        29.00000   30.00000  3.45%  79.9  235s
 15648   804   30.00000   23   82   29.00000   30.00000  3.45%  80.2  243s
 15983   801 infeasible   30        29.00000   30.00000  3.45%  80.5  246s
 16440   789   30.00000   15  109   29.00000   30.00000  3.45%  81.0  253s
 16460   704   30.00000   18  101   29.00000   30.00000  3.45%  81.0  258s
 16837   702   30.00000   22   88   29.00000   30.00000  3.45%  81.1  262s
 17137   754   30.00000   19   66   29.00000   30.00000  3.45%  81.7  267s
 17637   816   30.00000   29   87   29.00000   30.00000  3.45%  82.0  271s
 18234   870   30.00000   27   55   29.00000   30.00000  3.45%  82.0  279s
 18315   793   30.00000   29   78   29.00000   30.00000  3.45%  82.1  283s
 18823   866 infeasible   33        29.00000   30.00000  3.45%  82.3  286s
 19137   741 infeasible   27        29.00000   30.00000  3.45%  82.7  292s
 19321   674 infeasible   27        29.00000   30.00000  3.45%  83.3  296s
 19547   650   30.00000   29   81   29.00000   30.00000  3.45%  83.7  300s
 19948   577 infeasible   22        29.00000   30.00000  3.45%  84.2  307s
 20064   506 infeasible   33        29.00000   30.00000  3.45%  84.5  312s
 20258   482   30.00000   24   57   29.00000   30.00000  3.45%  84.9  316s
 20509   527 infeasible   32        29.00000   30.00000  3.45%  85.4  321s
 20809   702   30.00000   26  137   29.00000   30.00000  3.45%  85.7  383s
 20811   703   30.00000   90  352   29.00000   30.00000  3.45%  85.7  387s
 20813   705   30.00000   31  138   29.00000   30.00000  3.45%  85.7  391s
 20816   707   30.00000   42  140   29.00000   30.00000  3.45%  85.7  395s
 20822   711   30.00000   24  127   29.00000   30.00000  3.45%  85.7  401s
 20826   713   30.00000   30  118   29.00000   30.00000  3.45%  85.7  405s
 20830   716   30.00000   49  134   29.00000   30.00000  3.45%  85.6  411s
 20833   721   30.00000   21  123   29.00000   30.00000  3.45%  86.5  418s
 20835   723   30.00000   22  115   29.00000   30.00000  3.45%  86.5  421s
 20843   726   30.00000   23   96   29.00000   30.00000  3.45%  86.6  426s
 20855   732   30.00000   25   83   29.00000   30.00000  3.45%  86.6  430s
 20878   727   30.00000   28   91   29.00000   30.00000  3.45%  86.6  436s
 21021   712   30.00000   39   71   29.00000   30.00000  3.45%  86.5  443s
 21328   657   30.00000   30   76   29.00000   30.00000  3.45%  86.2  446s
 21504   613   30.00000   30   70   29.00000   30.00000  3.45%  86.1  450s
 21679   532   30.00000   35   72   29.00000   30.00000  3.45%  86.0  459s
 21787   450   30.00000   39   81   29.00000   30.00000  3.45%  86.0  462s
 22451   297 infeasible   32        29.00000   30.00000  3.45%  85.8  467s
 22984   137 infeasible   57        29.00000   30.00000  3.45%  85.8  471s
 23525   333   30.00000   57   87   29.00000   30.00000  3.45%  85.7  477s
 23534   312   30.00000   58   84   29.00000   30.00000  3.45%  85.7  482s
 23854   263   30.00000   61   81   29.00000   30.00000  3.45%  85.9  487s
 24497   312 infeasible   45        29.00000   30.00000  3.45%  85.7  492s
 24830   395 infeasible   69        29.00000   30.00000  3.45%  85.8  497s
 25071   304   30.00000   41   75   29.00000   30.00000  3.45%  86.1  502s
 25431   324   30.00000   41   72   29.00000   30.00000  3.45%  85.9  505s
 26186   342   30.00000   42   60   29.00000   30.00000  3.45%  85.9  512s
 26536   393 infeasible   40        29.00000   30.00000  3.45%  86.0  515s
 27150   461   30.00000   77   81   29.00000   30.00000  3.45%  86.2  523s
 27159   396   30.00000   78   85   29.00000   30.00000  3.45%  86.2  526s
 27930   458   30.00000   51   83   29.00000   30.00000  3.45%  86.3  533s
 28228   456 infeasible   37        29.00000   30.00000  3.45%  86.3  536s
 28611   473 infeasible   35        29.00000   30.00000  3.45%  86.3  540s
 29070   447   30.00000   36   87   29.00000   30.00000  3.45%  86.5  546s
 29084   377   30.00000   37   80   29.00000   30.00000  3.45%  86.5  550s
 29731   332 infeasible   41        29.00000   30.00000  3.45%  87.3  557s
 29926   273 infeasible   34        29.00000   30.00000  3.45%  87.8  561s
 30129   232 infeasible   59        29.00000   30.00000  3.45%  88.1  566s
 30397   272 infeasible   65        29.00000   30.00000  3.45%  88.6  571s
 30493   220   30.00000   26   76   29.00000   30.00000  3.45%  88.8  576s
 30781   238 infeasible   40        29.00000   30.00000  3.45%  89.4  580s
 31055   221 infeasible   38        29.00000   30.00000  3.45%  90.0  588s
 31279   176 infeasible   29        29.00000   30.00000  3.45%  90.3  593s
 31543   249 infeasible   29        29.00000   30.00000  3.45%  90.7  598s
 31563   161   30.00000   36   71   29.00000   30.00000  3.45%  90.8  603s
 31818   133 infeasible   48        29.00000   30.00000  3.45%  91.4  608s
 32108   156 infeasible   36        29.00000   30.00000  3.45%  91.9  614s
 32455   151 infeasible   42        29.00000   30.00000  3.45%  92.7  619s
*32495     5              38      30.0000000   30.00000  0.00%  92.8  619s

Cutting planes:
  Cover: 4
  Clique: 455
  Flow cover: 1
  Zero half: 1

Explored 32800 nodes (3071015 simplex iterations) in 619.96 seconds
Thread count was 4 (of 4 available processors)

Solution count 9: 30 29 28 ... 21

Optimal solution found (tolerance 1.00e-04)
Best objective 3.000000000000e+01, best bound 3.000000000000e+01, gap 0.0000%
[1] Generating Graphs:
[1] Generating: ./../results/frb30-15-5/frb30-15-5-Green.jpeg
[1] Generating: ./../results/frb30-15-5/frb30-15-5-Blue.jpeg
[1] Generating: ./../results/frb30-15-5/frb30-15-5-Orange.jpeg
[1] Generating: ./../results/frb30-15-5/frb30-15-5-Purple.jpeg
[1] Generating: ./../results/frb30-15-5/frb30-15-5-Pink.jpeg
[1] Generating: ./../results/frb30-15-5/frb30-15-5-Red.jpeg
[1] Done.
